27	3

10	10	10	

0	0	0	0	3	2	3	4	
2	3	5	2	2	5	8	
3	5	4	3	2	5	7	
2	5	2	2	2	5	6	
6	4	1	4	1	9	
3	5	5	4	1	9	
4	3	5	2	2	9	10	
5	2	4	4	3	9	11	12	
4	3	2	2	2	13	15	
6	3	2	4	3	13	14	16	
1	3	3	2	1	13	
2	4	1	4	1	13	
3	1	4	4	1	19	
3	2	2	2	1	17	
6	5	5	4	1	19	
5	1	5	4	2	18	20	
2	4	5	4	1	21	
2	3	2	3	1	23	
4	5	3	3	2	21	24	
2	2	4	6	1	22	
2	1	6	2	1	26	
1	3	2	1	1	25	
1	1	0	4	1	26	
1	2	2	1	1	26	
3	0	1	3	1	27	
4	2	2	2	1	27	
0	0	0	0	0	
